c   #vars: 118   #clauses: 552   #literals: 1524
c 
p cnf 118 552
-1 -2 0
36 41 -54 76 77 0
-3 -4 0
-5 -6 0
-7 -8 0
10 80 81 -84 0
25 28 29 -103 0
-11 -12 0
-13 -14 0
-15 -16 0
-17 -18 0
-19 -20 0
-21 -22 0
-23 -24 0
36 -54 76 77 0
-26 -27 0
-28 -29 0
-37 41 68 69 0
-30 -31 0
-32 -33 0
-34 -35 0
57 -58 99 100 0
-37 -38 0
17 18 82 83 0
26 27 82 83 0
-39 -40 0
-42 -43 0
-44 -45 0
-46 -47 0
-4 10 -64 84 0
25 -28 103 104 0
-48 -49 0
-50 -51 0
-52 -53 0
-54 -55 0
64 65 70 -78 0
58 59 73 -89 0
-58 -59 0
-60 -61 0
-62 -63 0
-64 -65 0
9 -60 66 67 0
-66 -67 0
-68 -69 0
-71 -72 0
36 41 -54 -68 0
-74 -75 0
-76 -77 0
-78 -79 0
68 69 91 92 0
-80 -81 0
3 -14 84 0
-82 -83 0
-85 -86 0
-87 -88 0
-89 -90 0
-91 -92 0
-93 -94 0
-95 -96 0
-97 -98 0
3 4 13 14 0
3 4 91 92 0
48 49 89 90 0
-99 -100 0
-101 -102 0
-103 -104 0
-105 -106 0
-107 -108 0
-109 -110 0
-111 -112 0
1 2 99 100 0
-113 -114 0
5 6 97 98 0
-115 -116 0
34 35 93 94 0
-117 -118 0
5 6 11 12 0
-1 -13 0
-2 -14 0
11 12 32 33 0
-1 -34 0
-2 -35 0
5 6 87 88 0
-1 -80 0
-2 -81 0
58 59 101 102 0
-1 -85 0
-2 -86 0
95 96 109 110 0
-1 -99 0
-2 -100 0
-1 -101 0
-2 -102 0
10 -14 -64 84 0
-41 66 67 -76 -77 0
71 72 76 77 0
19 20 93 94 0
66 67 107 108 0
3 4 -10 84 0
19 20 87 88 0
-3 -13 0
-4 -14 0
36 54 55 -76 0
-3 -26 0
-4 -27 0
28 29 44 45 0
-3 -42 0
-4 -43 0
-3 -54 0
-4 -55 0
-3 -84 0
-3 -87 0
-4 -88 0
74 75 103 104 0
-3 -91 0
-4 -92 0
91 92 95 96 0
-3 -97 0
-4 -98 0
7 8 111 112 0
-5 -11 0
-6 -12 0
105 106 107 108 0
-5 -30 0
-6 -31 0
7 8 17 18 0
-5 -87 0
-6 -88 0
-15 56 105 106 0
-5 -97 0
-6 -98 0
64 65 103 104 0
-5 -117 0
-6 -118 0
48 49 111 112 0
-7 -17 0
-8 -18 0
23 24 115 116 0
-7 -66 0
-8 -67 0
34 35 95 96 0
-7 -80 0
-8 -81 0
-7 -91 0
-8 -92 0
30 31 115 116 0
-7 -111 0
-8 -112 0
-64 70 91 92 0
10 -64 80 81 0
-9 -61 0
9 60 61 -68 0
-9 -67 0
68 69 111 112 0
-9 -69 0
71 72 105 106 0
25 -26 28 29 0
-10 -65 0
48 49 113 114 0
25 26 27 -103 0
-10 -81 0
25 26 27 -28 0
36 41 68 69 76 77 0
1 2 13 14 0
-11 -21 0
-12 -22 0
15 16 62 63 0
-11 -32 0
-12 -33 0
13 14 115 116 0
-11 -54 0
-12 -55 0
-11 -71 0
-12 -72 0
5 6 117 118 0
-11 -101 0
-12 -102 0
19 20 58 59 0
-13 -74 0
-14 -75 0
-13 -84 0
15 16 19 20 0
-13 -107 0
-14 -108 0
5 6 30 31 0
-13 -115 0
-14 -116 0
30 31 89 90 0
-15 -19 0
-16 -20 0
74 75 107 108 0
64 65 -68 70 0
-16 -56 0
11 12 71 72 0
-15 -62 0
-16 -63 0
7 8 66 67 0
-15 -74 0
-16 -75 0
93 94 97 98 0
-17 -66 0
-18 -67 0
17 18 66 67 0
-17 -71 0
-18 -72 0
28 29 48 49 0
-17 -82 0
-18 -83 0
-44 58 59 73 0
-20 -57 0
-19 -58 0
-20 -59 0
11 12 21 22 0
-19 -82 0
-20 -83 0
11 12 54 55 0
-19 -87 0
-20 -88 0
-19 -93 0
-20 -94 0
68 69 70 -78 0
-21 -50 0
-22 -51 0
-21 -60 0
-22 -61 0
37 38 39 40 0
-21 -62 0
-22 -63 0
37 38 78 79 0
-21 -93 0
-22 -94 0
-21 -107 0
-22 -108 0
-23 -58 0
-24 -59 0
13 14 107 108 0
-23 -60 0
-24 -61 0
-66 -67 76 77 0
-23 -64 0
-24 -65 0
1 2 34 35 0
-23 -115 0
-24 -116 0
-23 -117 0
-24 -118 0
46 47 105 106 0
-25 -27 0
52 53 64 65 0
-25 -29 0
70 -78 91 92 0
-25 -104 0
23 24 60 61 0
-26 -74 0
-27 -75 0
-37 56 105 106 0
-26 -82 0
-27 -83 0
46 47 54 55 0
-26 -101 0
-27 -102 0
42 43 85 86 0
-28 -44 0
-29 -45 0
39 40 42 43 0
-28 -48 0
-29 -49 0
3 4 97 98 0
-28 -99 0
-29 -100 0
60 61 82 83 0
-28 -113 0
-29 -114 0
36 37 38 41 54 55 0
-41 -66 -67 76 77 0
-68 70 91 92 0
39 40 60 61 0
17 18 71 72 0
54 55 -99 -100 0
23 24 64 65 0
-30 -52 0
-31 -53 0
54 55 66 67 0
-30 -89 0
-31 -90 0
7 8 91 92 0
-30 -115 0
-31 -116 0
62 63 66 67 0
-32 -48 0
-33 -49 0
34 35 42 43 0
-32 -62 0
-33 -63 0
74 75 111 112 0
-32 -103 0
-33 -104 0
44 45 97 98 0
-34 -42 0
-35 -43 0
34 35 60 61 0
-34 -60 0
-35 -61 0
60 61 93 94 0
-34 -74 0
-35 -75 0
-34 -76 0
-35 -77 0
11 12 101 102 0
-34 -93 0
-35 -94 0
28 29 99 100 0
-34 -95 0
-35 -96 0
91 92 115 116 0
-19 57 99 100 0
-36 -41 0
103 104 109 110 0
57 58 59 -99 0
-36 -55 0
78 79 105 106 0
-19 57 59 0
-36 -77 0
-37 -39 0
-38 -40 0
68 69 70 -91 0
-38 -41 0
37 38 46 47 0
-37 -46 0
-38 -47 0
46 47 109 110 0
-37 -48 0
-38 -49 0
70 78 79 -91 0
-38 -56 0
-4 10 -80 84 0
-37 -78 0
-38 -79 0
21 22 62 63 0
-64 70 78 79 0
64 65 70 -91 0
36 41 54 55 -76 0
-39 -42 0
-40 -43 0
19 20 57 -99 0
-39 -60 0
-40 -61 0
-54 -55 99 100 0
-39 -80 0
-40 -81 0
37 38 56 -105 0
-41 -69 0
15 16 74 75 0
-42 -85 0
-43 -86 0
10 -14 -80 84 0
-42 -89 0
-43 -90 0
30 31 52 53 0
-44 -62 0
-45 -63 0
3 4 87 88 0
66 67 -76 -77 0
-45 -73 0
54 55 117 118 0
-44 -97 0
-45 -98 0
36 41 54 55 68 69 0
-44 -117 0
-45 -118 0
46 47 50 51 0
-46 -50 0
-47 -51 0
21 22 50 51 0
-46 -54 0
-47 -55 0
50 51 109 110 0
-46 -71 0
-47 -72 0
-46 -105 0
-47 -106 0
52 53 113 114 0
-46 -109 0
-47 -110 0
25 -26 103 104 0
15 16 56 -105 0
-64 68 69 70 0
15 16 -37 56 0
-48 -64 0
-49 -65 0
21 22 93 94 0
-48 -89 0
-49 -90 0
3 4 54 55 0
101 102 103 104 0
-48 -111 0
-49 -112 0
1 2 80 81 0
-48 -113 0
-49 -114 0
44 45 62 63 0
28 29 113 114 0
-50 -109 0
-51 -110 0
-50 -117 0
-51 -118 0
23 24 58 59 0
-52 -64 0
-53 -65 0
36 -37 41 -54 0
-52 -68 0
-53 -69 0
-52 -89 0
-53 -90 0
-52 -113 0
-53 -114 0
71 72 107 108 0
-54 -66 0
-55 -67 0
9 66 67 -68 0
34 35 76 77 0
-54 -117 0
-55 -118 0
32 33 62 63 0
-68 70 78 79 0
-56 -106 0
44 45 73 -89 0
-57 -59 0
44 45 -58 73 0
-57 -100 0
36 -37 41 -76 0
-59 -73 0
-15 37 38 56 0
-58 -101 0
-59 -102 0
89 90 113 114 0
-60 -82 0
-61 -83 0
1 2 101 102 0
-60 -93 0
-61 -94 0
-62 -66 0
-63 -67 0
85 86 99 100 0
-62 -95 0
-63 -96 0
-65 -70 0
52 53 68 69 0
-64 -103 0
-65 -104 0
20 57 -58 0
10 64 65 -80 0
-10 13 14 84 0
36 37 38 41 76 77 0
82 83 117 118 0
-66 -107 0
-67 -108 0
7 8 80 81 0
-69 -70 0
76 77 80 81 0
-68 -91 0
-69 -92 0
37 38 48 49 0
-68 -111 0
-69 -112 0
-70 -79 0
39 40 80 81 0
-70 -92 0
19 20 82 83 0
-71 -76 0
-72 -77 0
34 35 74 75 0
-71 -105 0
-72 -106 0
50 51 117 118 0
-71 -107 0
-72 -108 0
1 2 85 86 0
-71 -113 0
-72 -114 0
3 4 26 27 0
36 41 -68 -76 0
-73 -90 0
82 83 91 92 0
-74 -103 0
-75 -104 0
44 45 117 118 0
-74 -107 0
-75 -108 0
26 27 101 102 0
-74 -111 0
-75 -112 0
85 86 87 88 0
-76 -80 0
-77 -81 0
-44 73 89 90 0
-4 13 84 0
37 38 41 -68 0
46 47 71 72 0
-78 -105 0
-79 -106 0
62 63 95 96 0
52 53 89 90 0
-82 -91 0
-83 -92 0
42 43 89 90 0
-82 -117 0
-83 -118 0
71 72 113 114 0
-85 -87 0
-86 -88 0
48 49 64 65 0
-85 -99 0
-86 -100 0
95 96 103 104 0
26 27 74 75 0
9 -66 68 69 0
9 60 61 -66 0
-89 -113 0
-90 -114 0
-58 73 89 90 0
-91 -95 0
-92 -96 0
21 22 60 61 0
-91 -115 0
-92 -116 0
32 33 103 104 0
-93 -97 0
-94 -98 0
101 102 109 110 0
-93 -105 0
-94 -106 0
-95 -103 0
-96 -104 0
32 33 48 49 0
-95 -109 0
-96 -110 0
93 94 105 106 0
3 4 42 43 0
9 -60 68 69 0
21 22 107 108 0
-101 -103 0
-102 -104 0
10 64 65 -84 0
-101 -109 0
-102 -110 0
13 14 74 75 0
-103 -109 0
-104 -110 0
23 24 117 118 0
-105 -107 0
-106 -108 0
